0	29	104	124	53	161	118	99	199	165	20	
48	0	28	179	26	143	48	81	172	50	149	
127	120	0	123	59	155	122	92	69	181	44	
167	33	189	0	127	38	166	143	138	42	47	
60	84	75	42	0	113	42	53	174	128	138	
138	80	124	50	149	0	68	78	66	88	31	
119	169	93	155	134	31	0	95	192	114	44	
159	100	169	66	177	149	28	0	44	67	184	
194	84	53	196	188	49	57	83	0	194	41	
158	122	114	150	93	51	164	132	29	0	34	
104	46	88	168	35	26	35	162	48	187	0	
